transportation7.sol
Transportation 7 - Wine
z = 10000.0
x11 = 0.0
x12 = 200.0
x13 = 0.0
x21 = 0.0
x22 = 200.0
x23 = 300.0
x31 = 200.0
x32 = 0.0
x33 = 0.0
